@SET temp 300

&GLOBAL
 PROJECT nvtmso
 RUN_TYPE MD
 PRINT_LEVEL LOW
&END GLOBAL

&EXT_RESTART
  RESTART_FILE_NAME nvtmso-1_XXXX.restart
&END EXT_RESTART

&FORCE_EVAL
  STRESS_TENSOR ANALYTICAL
  METHOD Quickstep
  &DFT
    CHARGE -1
    MULTIPLICITY 1

    &MGRID
       CUTOFF 500 
       REL_CUTOFF 60
    &END MGRID
 
    &SCF
       &OT 
         PRECONDITIONER FULL_SINGLE_INVERSE
         MINIMIZER DIIS
       &END OT
       SCF_GUESS ATOMIC
       EPS_SCF 1.0E-6
       MAX_SCF 500
       CHOLESKY INVERSE
    &END SCF

    &XC
      &XC_FUNCTIONAL PADE
      &END XC_FUNCTIONAL
    &END XC
  &END DFT

  &SUBSYS
    &KIND H
      BASIS_SET DZVP-GTH-PADE
      POTENTIAL GTH-PADE-q1
    &END KIND
    &KIND C
      BASIS_SET DZVP-GTH-PADE
      POTENTIAL GTH-PADE-q4
    &END KIND
    &KIND O
      BASIS_SET DZVP-GTH-PADE
      POTENTIAL GTH-PADE-q6
    &END KIND
    &KIND S
      BASIS_SET DZVP-GTH-PADE
      POTENTIAL GTH-PADE-q6
    &END KIND
  &END SUBSYS
&END FORCE_EVAL

&MOTION
  &MD
    ENSEMBLE NVT
    TEMPERATURE [K] 300
    TIMESTEP [fs] 1.0
    STEPS 2000

    &THERMOSTAT
      TYPE NOSE
      &NOSE
        TIMECON 10.0
      &END NOSE
    &END THERMOSTAT
  &END MD


  &PRINT
    &TRAJECTORY
      &EACH
        MD 10
      &END EACH
    &END TRAJECTORY
   
    &VELOCITIES OFF
    &END VELOCITIES

    &FORCES OFF
    &END FORCES
  &END PRINT
&END MOTION
